(declare-const x0 Bool)
(declare-const x1 Bool)
(declare-const x2 Bool)
(declare-const x3 Bool)
(declare-const x4 Bool)
(declare-const x5 Bool)
(declare-const x6 Bool)
(declare-const x7 Bool)
(declare-const x8 Bool)
(declare-const x9 Bool)
(declare-const x10 Bool)
(declare-const x11 Bool)
(declare-const x12 Bool)
(declare-const x13 Bool)
(declare-const x14 Bool)
(declare-const x15 Bool)
(declare-const x16 Bool)
(declare-const x17 Bool)
(declare-const x18 Bool)
(declare-const x19 Bool)
(declare-const x20 Bool)
(declare-const x21 Bool)
(declare-const x22 Bool)
(declare-const x23 Bool)
(declare-const x24 Bool)
(declare-const x25 Bool)
(declare-const x26 Bool)
(declare-const x27 Bool)
(declare-const x28 Bool)
(declare-const x29 Bool)
(declare-const x30 Bool)
(declare-const x31 Bool)
(declare-const x32 Bool)
(declare-const x33 Bool)
(declare-const x34 Bool)
(declare-const x35 Bool)
(declare-const x36 Bool)
(declare-const x37 Bool)
(declare-const x38 Bool)
(declare-const x39 Bool)
(declare-const x40 Bool)
(declare-const x41 Bool)
(declare-const x42 Bool)
(declare-const x43 Bool)
(declare-const x44 Bool)
(declare-const x45 Bool)
(declare-const x46 Bool)
(declare-const x47 Bool)
(declare-const x48 Bool)
(declare-const x49 Bool)
(declare-const x50 Bool)
(declare-const x51 Bool)
(declare-const x52 Bool)
(declare-const x53 Bool)
(declare-const x54 Bool)
(declare-const x55 Bool)
(declare-const x56 Bool)
(declare-const x57 Bool)
(declare-const x58 Bool)
(declare-const x59 Bool)
(declare-const x60 Bool)
(declare-const x61 Bool)
(declare-const x62 Bool)
(declare-const x63 Bool)
(declare-const x64 Bool)
(declare-const x65 Bool)
(declare-const x66 Bool)
(declare-const x67 Bool)
(declare-const x68 Bool)
(declare-const x69 Bool)
(declare-const x70 Bool)
(declare-const x71 Bool)
(declare-const x72 Bool)
(declare-const x73 Bool)
(declare-const x74 Bool)
(declare-const x75 Bool)
(declare-const x76 Bool)
(declare-const x77 Bool)
(declare-const x78 Bool)
(declare-const x79 Bool)
(declare-const x80 Bool)
(declare-const x81 Bool)
(declare-const x82 Bool)
(declare-const x83 Bool)
(declare-const x84 Bool)
(declare-const x85 Bool)
(declare-const x86 Bool)
(declare-const x87 Bool)
(declare-const x88 Bool)
(declare-const x89 Bool)
(assert (or x7 (or false true)))
(assert (or (or true false) x27))
(assert (and (or (or x75 x89) (= x83 (= false x85))) (and x23 x13)))
(assert (= (or x41 false) (or true true)))
(assert (= (and (= x63 x58) x53) (= (and true (and x66 x25)) (= false x8))))
(assert (= (= true (= x6 true)) (or (and (= true true) (or x70 x9)) false)))
(assert (= (= (and (and true false) (= false x72)) true) (or x73 (and x11 true))))
(assert (and (or (= true true) false) x17))
(assert (= (and x6 true) (or (= true true) (= x69 false))))
(assert (= (= (and (and false true) (= (= x59 false) x24)) (= (or x12 false) x51)) (or x81 (= true true))))
(check-sat)
